
;this file is automatically generated: Fri Oct 30 17:04:04 CST 2020

;declarations generated

(declare-fun oclExcludes ( Int Int) Bool)
(declare-fun Cardinality ( Int) Int)
(declare-fun obj_3f3cbb64_2bc8_4561_a8ce_247ac8b84b02 ( Int) Int)
(declare-fun type_d6d3bbb3_1b9a_412e_93ce_36971ab9a680_Class19 ( Int) Bool)
(declare-fun type_d6d3bbb3_1b9a_412e_93ce_36971ab9a680_Class16 ( Int) Bool)
(declare-fun type_d6d3bbb3_1b9a_412e_93ce_36971ab9a680_Class15 ( Int) Bool)
(declare-fun type_d6d3bbb3_1b9a_412e_93ce_36971ab9a680_Class18 ( Int) Bool)
(declare-fun type_d6d3bbb3_1b9a_412e_93ce_36971ab9a680_Class17 ( Int) Bool)
(declare-fun type_d6d3bbb3_1b9a_412e_93ce_36971ab9a680_Class12 ( Int) Bool)
(declare-fun type_d6d3bbb3_1b9a_412e_93ce_36971ab9a680_Class11 ( Int) Bool)
(declare-fun type_d6d3bbb3_1b9a_412e_93ce_36971ab9a680_Class14 ( Int) Bool)
(declare-fun type_d6d3bbb3_1b9a_412e_93ce_36971ab9a680_Class13 ( Int) Bool)
(declare-fun type_d6d3bbb3_1b9a_412e_93ce_36971ab9a680_Class21 ( Int) Bool)
(declare-fun type_d6d3bbb3_1b9a_412e_93ce_36971ab9a680_Class20 ( Int) Bool)
(declare-fun type_d6d3bbb3_1b9a_412e_93ce_36971ab9a680_Class10 ( Int) Bool)
(declare-fun type_d6d3bbb3_1b9a_412e_93ce_36971ab9a680_Class8 ( Int) Bool)
(declare-fun type_d6d3bbb3_1b9a_412e_93ce_36971ab9a680_Class9 ( Int) Bool)
(declare-fun type_d6d3bbb3_1b9a_412e_93ce_36971ab9a680_Class0 ( Int) Bool)
(declare-fun type_d6d3bbb3_1b9a_412e_93ce_36971ab9a680_Class1 ( Int) Bool)
(declare-fun type_d6d3bbb3_1b9a_412e_93ce_36971ab9a680_Class2 ( Int) Bool)
(declare-fun type_d6d3bbb3_1b9a_412e_93ce_36971ab9a680_Class3 ( Int) Bool)
(declare-fun type_d6d3bbb3_1b9a_412e_93ce_36971ab9a680_Class4 ( Int) Bool)
(declare-fun type_d6d3bbb3_1b9a_412e_93ce_36971ab9a680_Class5 ( Int) Bool)
(declare-fun type_d6d3bbb3_1b9a_412e_93ce_36971ab9a680_Class6 ( Int) Bool)
(declare-fun type_d6d3bbb3_1b9a_412e_93ce_36971ab9a680_Class7 ( Int) Bool)
(declare-fun oclSelect ( Int Bool) Int)
(declare-fun type_d6d3bbb3_1b9a_412e_93ce_36971ab9a680_Class38 ( Int) Bool)
(declare-fun type_d6d3bbb3_1b9a_412e_93ce_36971ab9a680_Class37 ( Int) Bool)
(declare-fun type_d6d3bbb3_1b9a_412e_93ce_36971ab9a680_Class39 ( Int) Bool)
(declare-fun type_d6d3bbb3_1b9a_412e_93ce_36971ab9a680_Class34 ( Int) Bool)
(declare-fun type_d6d3bbb3_1b9a_412e_93ce_36971ab9a680_Class33 ( Int) Bool)
(declare-fun type_d6d3bbb3_1b9a_412e_93ce_36971ab9a680_Class36 ( Int) Bool)
(declare-fun type_d6d3bbb3_1b9a_412e_93ce_36971ab9a680_Class35 ( Int) Bool)
(declare-fun type_d6d3bbb3_1b9a_412e_93ce_36971ab9a680_Class41 ( Int) Bool)
(declare-fun type_d6d3bbb3_1b9a_412e_93ce_36971ab9a680_Class40 ( Int) Bool)
(declare-fun type_d6d3bbb3_1b9a_412e_93ce_36971ab9a680_Class43 ( Int) Bool)
(declare-fun type_d6d3bbb3_1b9a_412e_93ce_36971ab9a680_Class42 ( Int) Bool)
(declare-fun type_d6d3bbb3_1b9a_412e_93ce_36971ab9a680_Class27 ( Int) Bool)
(declare-fun type_d6d3bbb3_1b9a_412e_93ce_36971ab9a680_Class26 ( Int) Bool)
(declare-fun type_d6d3bbb3_1b9a_412e_93ce_36971ab9a680_Class29 ( Int) Bool)
(declare-fun type_d6d3bbb3_1b9a_412e_93ce_36971ab9a680_Class28 ( Int) Bool)
(declare-fun type_d6d3bbb3_1b9a_412e_93ce_36971ab9a680_Class23 ( Int) Bool)
(declare-fun type_d6d3bbb3_1b9a_412e_93ce_36971ab9a680_Class22 ( Int) Bool)
(declare-fun type_d6d3bbb3_1b9a_412e_93ce_36971ab9a680_Class25 ( Int) Bool)
(declare-fun type_d6d3bbb3_1b9a_412e_93ce_36971ab9a680_Class24 ( Int) Bool)
(declare-fun type_d6d3bbb3_1b9a_412e_93ce_36971ab9a680_Class30 ( Int) Bool)
(declare-fun type_d6d3bbb3_1b9a_412e_93ce_36971ab9a680_Class32 ( Int) Bool)
(declare-fun type_d6d3bbb3_1b9a_412e_93ce_36971ab9a680_Class31 ( Int) Bool)
(declare-fun type_d6d3bbb3_1b9a_412e_93ce_36971ab9a680_Class55 ( Int) Bool)
(declare-fun type_d6d3bbb3_1b9a_412e_93ce_36971ab9a680_Class49 ( Int) Bool)
(declare-fun type_d6d3bbb3_1b9a_412e_93ce_36971ab9a680_Class48 ( Int) Bool)
(declare-fun type_d6d3bbb3_1b9a_412e_93ce_36971ab9a680_Class45 ( Int) Bool)
(declare-fun type_d6d3bbb3_1b9a_412e_93ce_36971ab9a680_Class44 ( Int) Bool)
(declare-fun type_d6d3bbb3_1b9a_412e_93ce_36971ab9a680_Class47 ( Int) Bool)
(declare-fun type_d6d3bbb3_1b9a_412e_93ce_36971ab9a680_Class46 ( Int) Bool)
(declare-fun type_d6d3bbb3_1b9a_412e_93ce_36971ab9a680_Class52 ( Int) Bool)
(declare-fun type_d6d3bbb3_1b9a_412e_93ce_36971ab9a680_Class51 ( Int) Bool)
(declare-fun type_d6d3bbb3_1b9a_412e_93ce_36971ab9a680_Class54 ( Int) Bool)
(declare-fun type_d6d3bbb3_1b9a_412e_93ce_36971ab9a680_Class53 ( Int) Bool)
(declare-fun type_d6d3bbb3_1b9a_412e_93ce_36971ab9a680_Class50 ( Int) Bool)
(declare-fun Enum0 ( Int) Int)
(declare-fun Enum1 ( Int) Int)
(declare-fun Enum2 ( Int) Int)
(declare-fun class42_Class42IntAttr2 ( Int) Int)
(declare-fun container_ ( Int) Int)
(declare-fun class42_Class42IntAttr4 ( Int) Int)
(declare-fun class42_Class42IntAttr3 ( Int) Int)
(declare-fun oclIncludes ( Int Int) Bool)
(declare-fun ObjAt ( Int Int) Int)

;formula(s) generated
(assert (! (forall ((c2_1 Int)(c2_2 Int)) (=> (and (and ( type_d6d3bbb3_1b9a_412e_93ce_36971ab9a680_Class42 c2_1 )  ( type_d6d3bbb3_1b9a_412e_93ce_36971ab9a680_Class39 c2_1 ) ) (and ( type_d6d3bbb3_1b9a_412e_93ce_36971ab9a680_Class42 c2_2 )  ( type_d6d3bbb3_1b9a_412e_93ce_36971ab9a680_Class39 c2_2 ) )) (< ( class42_Class42IntAttr2 ( obj_3f3cbb64_2bc8_4561_a8ce_247ac8b84b02 c2_1 )  )  ( class42_Class42IntAttr4 ( obj_3f3cbb64_2bc8_4561_a8ce_247ac8b84b02 c2_2 )  ) ))):named l0))
(assert (! (forall ((c1 Int)(c2 Int)) (=> (and (and ( type_d6d3bbb3_1b9a_412e_93ce_36971ab9a680_Class42 c1 )  ( type_d6d3bbb3_1b9a_412e_93ce_36971ab9a680_Class39 c1 ) ) (and ( type_d6d3bbb3_1b9a_412e_93ce_36971ab9a680_Class42 c2 )  ( type_d6d3bbb3_1b9a_412e_93ce_36971ab9a680_Class39 c2 ) )) (forall ((v Int)) (=> (and ( type_d6d3bbb3_1b9a_412e_93ce_36971ab9a680_Class42 v )  ( type_d6d3bbb3_1b9a_412e_93ce_36971ab9a680_Class39 v ) ) (= ( class42_Class42IntAttr3 ( obj_3f3cbb64_2bc8_4561_a8ce_247ac8b84b02 v )  )  ( class42_Class42IntAttr2 ( obj_3f3cbb64_2bc8_4561_a8ce_247ac8b84b02 c1 )  ) ))))):named l1))
(assert (! (exists ((o Int)) ( type_d6d3bbb3_1b9a_412e_93ce_36971ab9a680_Class0 ( obj_3f3cbb64_2bc8_4561_a8ce_247ac8b84b02 o )  ) ):named c0))
(assert (! (exists ((o Int)) (and (and (and (and (and ( type_d6d3bbb3_1b9a_412e_93ce_36971ab9a680_Class1 ( obj_3f3cbb64_2bc8_4561_a8ce_247ac8b84b02 o )  )  ( type_d6d3bbb3_1b9a_412e_93ce_36971ab9a680_Class45 ( obj_3f3cbb64_2bc8_4561_a8ce_247ac8b84b02 o )  ) ) ( type_d6d3bbb3_1b9a_412e_93ce_36971ab9a680_Class12 ( obj_3f3cbb64_2bc8_4561_a8ce_247ac8b84b02 o )  ) ) ( type_d6d3bbb3_1b9a_412e_93ce_36971ab9a680_Class33 ( obj_3f3cbb64_2bc8_4561_a8ce_247ac8b84b02 o )  ) ) ( type_d6d3bbb3_1b9a_412e_93ce_36971ab9a680_Class22 ( obj_3f3cbb64_2bc8_4561_a8ce_247ac8b84b02 o )  ) ) ( type_d6d3bbb3_1b9a_412e_93ce_36971ab9a680_Class39 ( obj_3f3cbb64_2bc8_4561_a8ce_247ac8b84b02 o )  ) )):named c1))
(assert (! (exists ((o Int)) (and (and (and (and (and (and (and (and (and ( type_d6d3bbb3_1b9a_412e_93ce_36971ab9a680_Class10 ( obj_3f3cbb64_2bc8_4561_a8ce_247ac8b84b02 o )  )  ( type_d6d3bbb3_1b9a_412e_93ce_36971ab9a680_Class45 ( obj_3f3cbb64_2bc8_4561_a8ce_247ac8b84b02 o )  ) ) ( type_d6d3bbb3_1b9a_412e_93ce_36971ab9a680_Class12 ( obj_3f3cbb64_2bc8_4561_a8ce_247ac8b84b02 o )  ) ) ( type_d6d3bbb3_1b9a_412e_93ce_36971ab9a680_Class55 ( obj_3f3cbb64_2bc8_4561_a8ce_247ac8b84b02 o )  ) ) ( type_d6d3bbb3_1b9a_412e_93ce_36971ab9a680_Class33 ( obj_3f3cbb64_2bc8_4561_a8ce_247ac8b84b02 o )  ) ) ( type_d6d3bbb3_1b9a_412e_93ce_36971ab9a680_Class22 ( obj_3f3cbb64_2bc8_4561_a8ce_247ac8b84b02 o )  ) ) ( type_d6d3bbb3_1b9a_412e_93ce_36971ab9a680_Class29 ( obj_3f3cbb64_2bc8_4561_a8ce_247ac8b84b02 o )  ) ) ( type_d6d3bbb3_1b9a_412e_93ce_36971ab9a680_Class39 ( obj_3f3cbb64_2bc8_4561_a8ce_247ac8b84b02 o )  ) ) ( type_d6d3bbb3_1b9a_412e_93ce_36971ab9a680_Class50 ( obj_3f3cbb64_2bc8_4561_a8ce_247ac8b84b02 o )  ) ) ( type_d6d3bbb3_1b9a_412e_93ce_36971ab9a680_Class41 ( obj_3f3cbb64_2bc8_4561_a8ce_247ac8b84b02 o )  ) )):named c2))
(assert (! (exists ((o Int)) ( type_d6d3bbb3_1b9a_412e_93ce_36971ab9a680_Class11 ( obj_3f3cbb64_2bc8_4561_a8ce_247ac8b84b02 o )  ) ):named c3))
(assert (! (exists ((o Int)) (and (and (and ( type_d6d3bbb3_1b9a_412e_93ce_36971ab9a680_Class12 ( obj_3f3cbb64_2bc8_4561_a8ce_247ac8b84b02 o )  )  ( type_d6d3bbb3_1b9a_412e_93ce_36971ab9a680_Class33 ( obj_3f3cbb64_2bc8_4561_a8ce_247ac8b84b02 o )  ) ) ( type_d6d3bbb3_1b9a_412e_93ce_36971ab9a680_Class22 ( obj_3f3cbb64_2bc8_4561_a8ce_247ac8b84b02 o )  ) ) ( type_d6d3bbb3_1b9a_412e_93ce_36971ab9a680_Class39 ( obj_3f3cbb64_2bc8_4561_a8ce_247ac8b84b02 o )  ) )):named c4))
(assert (! (exists ((o Int)) (and (and (and (and (and (and (and (and (and ( type_d6d3bbb3_1b9a_412e_93ce_36971ab9a680_Class13 ( obj_3f3cbb64_2bc8_4561_a8ce_247ac8b84b02 o )  )  ( type_d6d3bbb3_1b9a_412e_93ce_36971ab9a680_Class45 ( obj_3f3cbb64_2bc8_4561_a8ce_247ac8b84b02 o )  ) ) ( type_d6d3bbb3_1b9a_412e_93ce_36971ab9a680_Class12 ( obj_3f3cbb64_2bc8_4561_a8ce_247ac8b84b02 o )  ) ) ( type_d6d3bbb3_1b9a_412e_93ce_36971ab9a680_Class55 ( obj_3f3cbb64_2bc8_4561_a8ce_247ac8b84b02 o )  ) ) ( type_d6d3bbb3_1b9a_412e_93ce_36971ab9a680_Class33 ( obj_3f3cbb64_2bc8_4561_a8ce_247ac8b84b02 o )  ) ) ( type_d6d3bbb3_1b9a_412e_93ce_36971ab9a680_Class22 ( obj_3f3cbb64_2bc8_4561_a8ce_247ac8b84b02 o )  ) ) ( type_d6d3bbb3_1b9a_412e_93ce_36971ab9a680_Class29 ( obj_3f3cbb64_2bc8_4561_a8ce_247ac8b84b02 o )  ) ) ( type_d6d3bbb3_1b9a_412e_93ce_36971ab9a680_Class39 ( obj_3f3cbb64_2bc8_4561_a8ce_247ac8b84b02 o )  ) ) ( type_d6d3bbb3_1b9a_412e_93ce_36971ab9a680_Class50 ( obj_3f3cbb64_2bc8_4561_a8ce_247ac8b84b02 o )  ) ) ( type_d6d3bbb3_1b9a_412e_93ce_36971ab9a680_Class41 ( obj_3f3cbb64_2bc8_4561_a8ce_247ac8b84b02 o )  ) )):named c5))
(assert (! (exists ((o Int)) (and (and (and (and (and (and (and (and (and ( type_d6d3bbb3_1b9a_412e_93ce_36971ab9a680_Class14 ( obj_3f3cbb64_2bc8_4561_a8ce_247ac8b84b02 o )  )  ( type_d6d3bbb3_1b9a_412e_93ce_36971ab9a680_Class45 ( obj_3f3cbb64_2bc8_4561_a8ce_247ac8b84b02 o )  ) ) ( type_d6d3bbb3_1b9a_412e_93ce_36971ab9a680_Class12 ( obj_3f3cbb64_2bc8_4561_a8ce_247ac8b84b02 o )  ) ) ( type_d6d3bbb3_1b9a_412e_93ce_36971ab9a680_Class55 ( obj_3f3cbb64_2bc8_4561_a8ce_247ac8b84b02 o )  ) ) ( type_d6d3bbb3_1b9a_412e_93ce_36971ab9a680_Class33 ( obj_3f3cbb64_2bc8_4561_a8ce_247ac8b84b02 o )  ) ) ( type_d6d3bbb3_1b9a_412e_93ce_36971ab9a680_Class22 ( obj_3f3cbb64_2bc8_4561_a8ce_247ac8b84b02 o )  ) ) ( type_d6d3bbb3_1b9a_412e_93ce_36971ab9a680_Class29 ( obj_3f3cbb64_2bc8_4561_a8ce_247ac8b84b02 o )  ) ) ( type_d6d3bbb3_1b9a_412e_93ce_36971ab9a680_Class39 ( obj_3f3cbb64_2bc8_4561_a8ce_247ac8b84b02 o )  ) ) ( type_d6d3bbb3_1b9a_412e_93ce_36971ab9a680_Class50 ( obj_3f3cbb64_2bc8_4561_a8ce_247ac8b84b02 o )  ) ) ( type_d6d3bbb3_1b9a_412e_93ce_36971ab9a680_Class41 ( obj_3f3cbb64_2bc8_4561_a8ce_247ac8b84b02 o )  ) )):named c6))
(assert (! (exists ((o Int)) ( type_d6d3bbb3_1b9a_412e_93ce_36971ab9a680_Class15 ( obj_3f3cbb64_2bc8_4561_a8ce_247ac8b84b02 o )  ) ):named c7))
(assert (! (exists ((o Int)) (and (and (and (and (and ( type_d6d3bbb3_1b9a_412e_93ce_36971ab9a680_Class16 ( obj_3f3cbb64_2bc8_4561_a8ce_247ac8b84b02 o )  )  ( type_d6d3bbb3_1b9a_412e_93ce_36971ab9a680_Class45 ( obj_3f3cbb64_2bc8_4561_a8ce_247ac8b84b02 o )  ) ) ( type_d6d3bbb3_1b9a_412e_93ce_36971ab9a680_Class12 ( obj_3f3cbb64_2bc8_4561_a8ce_247ac8b84b02 o )  ) ) ( type_d6d3bbb3_1b9a_412e_93ce_36971ab9a680_Class33 ( obj_3f3cbb64_2bc8_4561_a8ce_247ac8b84b02 o )  ) ) ( type_d6d3bbb3_1b9a_412e_93ce_36971ab9a680_Class22 ( obj_3f3cbb64_2bc8_4561_a8ce_247ac8b84b02 o )  ) ) ( type_d6d3bbb3_1b9a_412e_93ce_36971ab9a680_Class39 ( obj_3f3cbb64_2bc8_4561_a8ce_247ac8b84b02 o )  ) )):named c8))
(assert (! (exists ((o Int)) ( type_d6d3bbb3_1b9a_412e_93ce_36971ab9a680_Class17 ( obj_3f3cbb64_2bc8_4561_a8ce_247ac8b84b02 o )  ) ):named c9))
(assert (! (exists ((o Int)) (and (and (and ( type_d6d3bbb3_1b9a_412e_93ce_36971ab9a680_Class18 ( obj_3f3cbb64_2bc8_4561_a8ce_247ac8b84b02 o )  )  ( type_d6d3bbb3_1b9a_412e_93ce_36971ab9a680_Class25 ( obj_3f3cbb64_2bc8_4561_a8ce_247ac8b84b02 o )  ) ) ( type_d6d3bbb3_1b9a_412e_93ce_36971ab9a680_Class24 ( obj_3f3cbb64_2bc8_4561_a8ce_247ac8b84b02 o )  ) ) ( type_d6d3bbb3_1b9a_412e_93ce_36971ab9a680_Class39 ( obj_3f3cbb64_2bc8_4561_a8ce_247ac8b84b02 o )  ) )):named c10))
(assert (! (exists ((o Int)) (and (and (and (and (and (and (and (and (and ( type_d6d3bbb3_1b9a_412e_93ce_36971ab9a680_Class19 ( obj_3f3cbb64_2bc8_4561_a8ce_247ac8b84b02 o )  )  ( type_d6d3bbb3_1b9a_412e_93ce_36971ab9a680_Class45 ( obj_3f3cbb64_2bc8_4561_a8ce_247ac8b84b02 o )  ) ) ( type_d6d3bbb3_1b9a_412e_93ce_36971ab9a680_Class12 ( obj_3f3cbb64_2bc8_4561_a8ce_247ac8b84b02 o )  ) ) ( type_d6d3bbb3_1b9a_412e_93ce_36971ab9a680_Class55 ( obj_3f3cbb64_2bc8_4561_a8ce_247ac8b84b02 o )  ) ) ( type_d6d3bbb3_1b9a_412e_93ce_36971ab9a680_Class33 ( obj_3f3cbb64_2bc8_4561_a8ce_247ac8b84b02 o )  ) ) ( type_d6d3bbb3_1b9a_412e_93ce_36971ab9a680_Class22 ( obj_3f3cbb64_2bc8_4561_a8ce_247ac8b84b02 o )  ) ) ( type_d6d3bbb3_1b9a_412e_93ce_36971ab9a680_Class29 ( obj_3f3cbb64_2bc8_4561_a8ce_247ac8b84b02 o )  ) ) ( type_d6d3bbb3_1b9a_412e_93ce_36971ab9a680_Class39 ( obj_3f3cbb64_2bc8_4561_a8ce_247ac8b84b02 o )  ) ) ( type_d6d3bbb3_1b9a_412e_93ce_36971ab9a680_Class50 ( obj_3f3cbb64_2bc8_4561_a8ce_247ac8b84b02 o )  ) ) ( type_d6d3bbb3_1b9a_412e_93ce_36971ab9a680_Class41 ( obj_3f3cbb64_2bc8_4561_a8ce_247ac8b84b02 o )  ) )):named c11))
(assert (! (exists ((o Int)) ( type_d6d3bbb3_1b9a_412e_93ce_36971ab9a680_Class2 ( obj_3f3cbb64_2bc8_4561_a8ce_247ac8b84b02 o )  ) ):named c12))
(assert (! (exists ((o Int)) ( type_d6d3bbb3_1b9a_412e_93ce_36971ab9a680_Class20 ( obj_3f3cbb64_2bc8_4561_a8ce_247ac8b84b02 o )  ) ):named c13))
(assert (! (exists ((o Int)) (and (and (and (and (and (and (and (and (and ( type_d6d3bbb3_1b9a_412e_93ce_36971ab9a680_Class21 ( obj_3f3cbb64_2bc8_4561_a8ce_247ac8b84b02 o )  )  ( type_d6d3bbb3_1b9a_412e_93ce_36971ab9a680_Class45 ( obj_3f3cbb64_2bc8_4561_a8ce_247ac8b84b02 o )  ) ) ( type_d6d3bbb3_1b9a_412e_93ce_36971ab9a680_Class12 ( obj_3f3cbb64_2bc8_4561_a8ce_247ac8b84b02 o )  ) ) ( type_d6d3bbb3_1b9a_412e_93ce_36971ab9a680_Class33 ( obj_3f3cbb64_2bc8_4561_a8ce_247ac8b84b02 o )  ) ) ( type_d6d3bbb3_1b9a_412e_93ce_36971ab9a680_Class22 ( obj_3f3cbb64_2bc8_4561_a8ce_247ac8b84b02 o )  ) ) ( type_d6d3bbb3_1b9a_412e_93ce_36971ab9a680_Class16 ( obj_3f3cbb64_2bc8_4561_a8ce_247ac8b84b02 o )  ) ) ( type_d6d3bbb3_1b9a_412e_93ce_36971ab9a680_Class29 ( obj_3f3cbb64_2bc8_4561_a8ce_247ac8b84b02 o )  ) ) ( type_d6d3bbb3_1b9a_412e_93ce_36971ab9a680_Class39 ( obj_3f3cbb64_2bc8_4561_a8ce_247ac8b84b02 o )  ) ) ( type_d6d3bbb3_1b9a_412e_93ce_36971ab9a680_Class41 ( obj_3f3cbb64_2bc8_4561_a8ce_247ac8b84b02 o )  ) ) ( type_d6d3bbb3_1b9a_412e_93ce_36971ab9a680_Class51 ( obj_3f3cbb64_2bc8_4561_a8ce_247ac8b84b02 o )  ) )):named c14))
(assert (! (exists ((o Int)) (and ( type_d6d3bbb3_1b9a_412e_93ce_36971ab9a680_Class22 ( obj_3f3cbb64_2bc8_4561_a8ce_247ac8b84b02 o )  )  ( type_d6d3bbb3_1b9a_412e_93ce_36971ab9a680_Class39 ( obj_3f3cbb64_2bc8_4561_a8ce_247ac8b84b02 o )  ) )):named c15))
(assert (! (exists ((o Int)) (and (and (and (and ( type_d6d3bbb3_1b9a_412e_93ce_36971ab9a680_Class23 ( obj_3f3cbb64_2bc8_4561_a8ce_247ac8b84b02 o )  )  ( type_d6d3bbb3_1b9a_412e_93ce_36971ab9a680_Class25 ( obj_3f3cbb64_2bc8_4561_a8ce_247ac8b84b02 o )  ) ) ( type_d6d3bbb3_1b9a_412e_93ce_36971ab9a680_Class24 ( obj_3f3cbb64_2bc8_4561_a8ce_247ac8b84b02 o )  ) ) ( type_d6d3bbb3_1b9a_412e_93ce_36971ab9a680_Class39 ( obj_3f3cbb64_2bc8_4561_a8ce_247ac8b84b02 o )  ) ) ( type_d6d3bbb3_1b9a_412e_93ce_36971ab9a680_Class5 ( obj_3f3cbb64_2bc8_4561_a8ce_247ac8b84b02 o )  ) )):named c16))
(assert (! (exists ((o Int)) (and (and ( type_d6d3bbb3_1b9a_412e_93ce_36971ab9a680_Class24 ( obj_3f3cbb64_2bc8_4561_a8ce_247ac8b84b02 o )  )  ( type_d6d3bbb3_1b9a_412e_93ce_36971ab9a680_Class25 ( obj_3f3cbb64_2bc8_4561_a8ce_247ac8b84b02 o )  ) ) ( type_d6d3bbb3_1b9a_412e_93ce_36971ab9a680_Class39 ( obj_3f3cbb64_2bc8_4561_a8ce_247ac8b84b02 o )  ) )):named c17))
(assert (! (exists ((o Int)) (and ( type_d6d3bbb3_1b9a_412e_93ce_36971ab9a680_Class25 ( obj_3f3cbb64_2bc8_4561_a8ce_247ac8b84b02 o )  )  ( type_d6d3bbb3_1b9a_412e_93ce_36971ab9a680_Class39 ( obj_3f3cbb64_2bc8_4561_a8ce_247ac8b84b02 o )  ) )):named c18))
(assert (! (exists ((o Int)) ( type_d6d3bbb3_1b9a_412e_93ce_36971ab9a680_Class26 ( obj_3f3cbb64_2bc8_4561_a8ce_247ac8b84b02 o )  ) ):named c19))
(assert (! (exists ((o Int)) ( type_d6d3bbb3_1b9a_412e_93ce_36971ab9a680_Class27 ( obj_3f3cbb64_2bc8_4561_a8ce_247ac8b84b02 o )  ) ):named c20))
(assert (! (exists ((o Int)) (and (and (and (and (and (and (and ( type_d6d3bbb3_1b9a_412e_93ce_36971ab9a680_Class28 ( obj_3f3cbb64_2bc8_4561_a8ce_247ac8b84b02 o )  )  ( type_d6d3bbb3_1b9a_412e_93ce_36971ab9a680_Class45 ( obj_3f3cbb64_2bc8_4561_a8ce_247ac8b84b02 o )  ) ) ( type_d6d3bbb3_1b9a_412e_93ce_36971ab9a680_Class12 ( obj_3f3cbb64_2bc8_4561_a8ce_247ac8b84b02 o )  ) ) ( type_d6d3bbb3_1b9a_412e_93ce_36971ab9a680_Class33 ( obj_3f3cbb64_2bc8_4561_a8ce_247ac8b84b02 o )  ) ) ( type_d6d3bbb3_1b9a_412e_93ce_36971ab9a680_Class22 ( obj_3f3cbb64_2bc8_4561_a8ce_247ac8b84b02 o )  ) ) ( type_d6d3bbb3_1b9a_412e_93ce_36971ab9a680_Class29 ( obj_3f3cbb64_2bc8_4561_a8ce_247ac8b84b02 o )  ) ) ( type_d6d3bbb3_1b9a_412e_93ce_36971ab9a680_Class39 ( obj_3f3cbb64_2bc8_4561_a8ce_247ac8b84b02 o )  ) ) ( type_d6d3bbb3_1b9a_412e_93ce_36971ab9a680_Class41 ( obj_3f3cbb64_2bc8_4561_a8ce_247ac8b84b02 o )  ) )):named c21))
(assert (! (exists ((o Int)) (and (and (and (and (and (and ( type_d6d3bbb3_1b9a_412e_93ce_36971ab9a680_Class29 ( obj_3f3cbb64_2bc8_4561_a8ce_247ac8b84b02 o )  )  ( type_d6d3bbb3_1b9a_412e_93ce_36971ab9a680_Class45 ( obj_3f3cbb64_2bc8_4561_a8ce_247ac8b84b02 o )  ) ) ( type_d6d3bbb3_1b9a_412e_93ce_36971ab9a680_Class12 ( obj_3f3cbb64_2bc8_4561_a8ce_247ac8b84b02 o )  ) ) ( type_d6d3bbb3_1b9a_412e_93ce_36971ab9a680_Class33 ( obj_3f3cbb64_2bc8_4561_a8ce_247ac8b84b02 o )  ) ) ( type_d6d3bbb3_1b9a_412e_93ce_36971ab9a680_Class22 ( obj_3f3cbb64_2bc8_4561_a8ce_247ac8b84b02 o )  ) ) ( type_d6d3bbb3_1b9a_412e_93ce_36971ab9a680_Class39 ( obj_3f3cbb64_2bc8_4561_a8ce_247ac8b84b02 o )  ) ) ( type_d6d3bbb3_1b9a_412e_93ce_36971ab9a680_Class41 ( obj_3f3cbb64_2bc8_4561_a8ce_247ac8b84b02 o )  ) )):named c22))
(assert (! (exists ((o Int)) (and (and (and ( type_d6d3bbb3_1b9a_412e_93ce_36971ab9a680_Class3 ( obj_3f3cbb64_2bc8_4561_a8ce_247ac8b84b02 o )  )  ( type_d6d3bbb3_1b9a_412e_93ce_36971ab9a680_Class25 ( obj_3f3cbb64_2bc8_4561_a8ce_247ac8b84b02 o )  ) ) ( type_d6d3bbb3_1b9a_412e_93ce_36971ab9a680_Class24 ( obj_3f3cbb64_2bc8_4561_a8ce_247ac8b84b02 o )  ) ) ( type_d6d3bbb3_1b9a_412e_93ce_36971ab9a680_Class39 ( obj_3f3cbb64_2bc8_4561_a8ce_247ac8b84b02 o )  ) )):named c23))
(assert (! (exists ((o Int)) (and ( type_d6d3bbb3_1b9a_412e_93ce_36971ab9a680_Class30 ( obj_3f3cbb64_2bc8_4561_a8ce_247ac8b84b02 o )  )  ( type_d6d3bbb3_1b9a_412e_93ce_36971ab9a680_Class39 ( obj_3f3cbb64_2bc8_4561_a8ce_247ac8b84b02 o )  ) )):named c24))
(assert (! (exists ((o Int)) (and (and (and (and (and ( type_d6d3bbb3_1b9a_412e_93ce_36971ab9a680_Class31 ( obj_3f3cbb64_2bc8_4561_a8ce_247ac8b84b02 o )  )  ( type_d6d3bbb3_1b9a_412e_93ce_36971ab9a680_Class45 ( obj_3f3cbb64_2bc8_4561_a8ce_247ac8b84b02 o )  ) ) ( type_d6d3bbb3_1b9a_412e_93ce_36971ab9a680_Class12 ( obj_3f3cbb64_2bc8_4561_a8ce_247ac8b84b02 o )  ) ) ( type_d6d3bbb3_1b9a_412e_93ce_36971ab9a680_Class33 ( obj_3f3cbb64_2bc8_4561_a8ce_247ac8b84b02 o )  ) ) ( type_d6d3bbb3_1b9a_412e_93ce_36971ab9a680_Class22 ( obj_3f3cbb64_2bc8_4561_a8ce_247ac8b84b02 o )  ) ) ( type_d6d3bbb3_1b9a_412e_93ce_36971ab9a680_Class39 ( obj_3f3cbb64_2bc8_4561_a8ce_247ac8b84b02 o )  ) )):named c25))
(assert (! (exists ((o Int)) ( type_d6d3bbb3_1b9a_412e_93ce_36971ab9a680_Class32 ( obj_3f3cbb64_2bc8_4561_a8ce_247ac8b84b02 o )  ) ):named c26))
(assert (! (exists ((o Int)) (and (and ( type_d6d3bbb3_1b9a_412e_93ce_36971ab9a680_Class33 ( obj_3f3cbb64_2bc8_4561_a8ce_247ac8b84b02 o )  )  ( type_d6d3bbb3_1b9a_412e_93ce_36971ab9a680_Class22 ( obj_3f3cbb64_2bc8_4561_a8ce_247ac8b84b02 o )  ) ) ( type_d6d3bbb3_1b9a_412e_93ce_36971ab9a680_Class39 ( obj_3f3cbb64_2bc8_4561_a8ce_247ac8b84b02 o )  ) )):named c27))
(assert (! (exists ((o Int)) (and (and (and ( type_d6d3bbb3_1b9a_412e_93ce_36971ab9a680_Class34 ( obj_3f3cbb64_2bc8_4561_a8ce_247ac8b84b02 o )  )  ( type_d6d3bbb3_1b9a_412e_93ce_36971ab9a680_Class25 ( obj_3f3cbb64_2bc8_4561_a8ce_247ac8b84b02 o )  ) ) ( type_d6d3bbb3_1b9a_412e_93ce_36971ab9a680_Class24 ( obj_3f3cbb64_2bc8_4561_a8ce_247ac8b84b02 o )  ) ) ( type_d6d3bbb3_1b9a_412e_93ce_36971ab9a680_Class39 ( obj_3f3cbb64_2bc8_4561_a8ce_247ac8b84b02 o )  ) )):named c28))
(assert (! (exists ((o Int)) (and (and ( type_d6d3bbb3_1b9a_412e_93ce_36971ab9a680_Class35 ( obj_3f3cbb64_2bc8_4561_a8ce_247ac8b84b02 o )  )  ( type_d6d3bbb3_1b9a_412e_93ce_36971ab9a680_Class39 ( obj_3f3cbb64_2bc8_4561_a8ce_247ac8b84b02 o )  ) ) ( type_d6d3bbb3_1b9a_412e_93ce_36971ab9a680_Class30 ( obj_3f3cbb64_2bc8_4561_a8ce_247ac8b84b02 o )  ) )):named c29))
(assert (! (exists ((o Int)) ( type_d6d3bbb3_1b9a_412e_93ce_36971ab9a680_Class36 ( obj_3f3cbb64_2bc8_4561_a8ce_247ac8b84b02 o )  ) ):named c30))
(assert (! (exists ((o Int)) ( type_d6d3bbb3_1b9a_412e_93ce_36971ab9a680_Class37 ( obj_3f3cbb64_2bc8_4561_a8ce_247ac8b84b02 o )  ) ):named c31))
(assert (! (exists ((o Int)) ( type_d6d3bbb3_1b9a_412e_93ce_36971ab9a680_Class38 ( obj_3f3cbb64_2bc8_4561_a8ce_247ac8b84b02 o )  ) ):named c32))
(assert (! (exists ((o Int)) ( type_d6d3bbb3_1b9a_412e_93ce_36971ab9a680_Class39 ( obj_3f3cbb64_2bc8_4561_a8ce_247ac8b84b02 o )  ) ):named c33))
(assert (! (exists ((o Int)) ( type_d6d3bbb3_1b9a_412e_93ce_36971ab9a680_Class4 ( obj_3f3cbb64_2bc8_4561_a8ce_247ac8b84b02 o )  ) ):named c34))
(assert (! (exists ((o Int)) (and (and (and (and (and (and (and (and (and ( type_d6d3bbb3_1b9a_412e_93ce_36971ab9a680_Class40 ( obj_3f3cbb64_2bc8_4561_a8ce_247ac8b84b02 o )  )  ( type_d6d3bbb3_1b9a_412e_93ce_36971ab9a680_Class45 ( obj_3f3cbb64_2bc8_4561_a8ce_247ac8b84b02 o )  ) ) ( type_d6d3bbb3_1b9a_412e_93ce_36971ab9a680_Class12 ( obj_3f3cbb64_2bc8_4561_a8ce_247ac8b84b02 o )  ) ) ( type_d6d3bbb3_1b9a_412e_93ce_36971ab9a680_Class55 ( obj_3f3cbb64_2bc8_4561_a8ce_247ac8b84b02 o )  ) ) ( type_d6d3bbb3_1b9a_412e_93ce_36971ab9a680_Class33 ( obj_3f3cbb64_2bc8_4561_a8ce_247ac8b84b02 o )  ) ) ( type_d6d3bbb3_1b9a_412e_93ce_36971ab9a680_Class22 ( obj_3f3cbb64_2bc8_4561_a8ce_247ac8b84b02 o )  ) ) ( type_d6d3bbb3_1b9a_412e_93ce_36971ab9a680_Class29 ( obj_3f3cbb64_2bc8_4561_a8ce_247ac8b84b02 o )  ) ) ( type_d6d3bbb3_1b9a_412e_93ce_36971ab9a680_Class39 ( obj_3f3cbb64_2bc8_4561_a8ce_247ac8b84b02 o )  ) ) ( type_d6d3bbb3_1b9a_412e_93ce_36971ab9a680_Class50 ( obj_3f3cbb64_2bc8_4561_a8ce_247ac8b84b02 o )  ) ) ( type_d6d3bbb3_1b9a_412e_93ce_36971ab9a680_Class41 ( obj_3f3cbb64_2bc8_4561_a8ce_247ac8b84b02 o )  ) )):named c35))
(assert (! (exists ((o Int)) (and (and (and (and (and ( type_d6d3bbb3_1b9a_412e_93ce_36971ab9a680_Class41 ( obj_3f3cbb64_2bc8_4561_a8ce_247ac8b84b02 o )  )  ( type_d6d3bbb3_1b9a_412e_93ce_36971ab9a680_Class45 ( obj_3f3cbb64_2bc8_4561_a8ce_247ac8b84b02 o )  ) ) ( type_d6d3bbb3_1b9a_412e_93ce_36971ab9a680_Class12 ( obj_3f3cbb64_2bc8_4561_a8ce_247ac8b84b02 o )  ) ) ( type_d6d3bbb3_1b9a_412e_93ce_36971ab9a680_Class33 ( obj_3f3cbb64_2bc8_4561_a8ce_247ac8b84b02 o )  ) ) ( type_d6d3bbb3_1b9a_412e_93ce_36971ab9a680_Class22 ( obj_3f3cbb64_2bc8_4561_a8ce_247ac8b84b02 o )  ) ) ( type_d6d3bbb3_1b9a_412e_93ce_36971ab9a680_Class39 ( obj_3f3cbb64_2bc8_4561_a8ce_247ac8b84b02 o )  ) )):named c36))
(assert (! (exists ((o Int)) (and ( type_d6d3bbb3_1b9a_412e_93ce_36971ab9a680_Class42 ( obj_3f3cbb64_2bc8_4561_a8ce_247ac8b84b02 o )  )  ( type_d6d3bbb3_1b9a_412e_93ce_36971ab9a680_Class39 ( obj_3f3cbb64_2bc8_4561_a8ce_247ac8b84b02 o )  ) )):named c37))
(assert (! (exists ((o Int)) ( type_d6d3bbb3_1b9a_412e_93ce_36971ab9a680_Class43 ( obj_3f3cbb64_2bc8_4561_a8ce_247ac8b84b02 o )  ) ):named c38))
(assert (! (exists ((o Int)) (and (and (and (and (and (and (and ( type_d6d3bbb3_1b9a_412e_93ce_36971ab9a680_Class44 ( obj_3f3cbb64_2bc8_4561_a8ce_247ac8b84b02 o )  )  ( type_d6d3bbb3_1b9a_412e_93ce_36971ab9a680_Class45 ( obj_3f3cbb64_2bc8_4561_a8ce_247ac8b84b02 o )  ) ) ( type_d6d3bbb3_1b9a_412e_93ce_36971ab9a680_Class12 ( obj_3f3cbb64_2bc8_4561_a8ce_247ac8b84b02 o )  ) ) ( type_d6d3bbb3_1b9a_412e_93ce_36971ab9a680_Class33 ( obj_3f3cbb64_2bc8_4561_a8ce_247ac8b84b02 o )  ) ) ( type_d6d3bbb3_1b9a_412e_93ce_36971ab9a680_Class22 ( obj_3f3cbb64_2bc8_4561_a8ce_247ac8b84b02 o )  ) ) ( type_d6d3bbb3_1b9a_412e_93ce_36971ab9a680_Class29 ( obj_3f3cbb64_2bc8_4561_a8ce_247ac8b84b02 o )  ) ) ( type_d6d3bbb3_1b9a_412e_93ce_36971ab9a680_Class39 ( obj_3f3cbb64_2bc8_4561_a8ce_247ac8b84b02 o )  ) ) ( type_d6d3bbb3_1b9a_412e_93ce_36971ab9a680_Class41 ( obj_3f3cbb64_2bc8_4561_a8ce_247ac8b84b02 o )  ) )):named c39))
(assert (! (exists ((o Int)) (and (and (and (and ( type_d6d3bbb3_1b9a_412e_93ce_36971ab9a680_Class45 ( obj_3f3cbb64_2bc8_4561_a8ce_247ac8b84b02 o )  )  ( type_d6d3bbb3_1b9a_412e_93ce_36971ab9a680_Class12 ( obj_3f3cbb64_2bc8_4561_a8ce_247ac8b84b02 o )  ) ) ( type_d6d3bbb3_1b9a_412e_93ce_36971ab9a680_Class33 ( obj_3f3cbb64_2bc8_4561_a8ce_247ac8b84b02 o )  ) ) ( type_d6d3bbb3_1b9a_412e_93ce_36971ab9a680_Class22 ( obj_3f3cbb64_2bc8_4561_a8ce_247ac8b84b02 o )  ) ) ( type_d6d3bbb3_1b9a_412e_93ce_36971ab9a680_Class39 ( obj_3f3cbb64_2bc8_4561_a8ce_247ac8b84b02 o )  ) )):named c40))
(assert (! (exists ((o Int)) (and (and ( type_d6d3bbb3_1b9a_412e_93ce_36971ab9a680_Class46 ( obj_3f3cbb64_2bc8_4561_a8ce_247ac8b84b02 o )  )  ( type_d6d3bbb3_1b9a_412e_93ce_36971ab9a680_Class39 ( obj_3f3cbb64_2bc8_4561_a8ce_247ac8b84b02 o )  ) ) ( type_d6d3bbb3_1b9a_412e_93ce_36971ab9a680_Class5 ( obj_3f3cbb64_2bc8_4561_a8ce_247ac8b84b02 o )  ) )):named c41))
(assert (! (exists ((o Int)) ( type_d6d3bbb3_1b9a_412e_93ce_36971ab9a680_Class47 ( obj_3f3cbb64_2bc8_4561_a8ce_247ac8b84b02 o )  ) ):named c42))
(assert (! (exists ((o Int)) (and (and (and (and (and (and (and (and (and ( type_d6d3bbb3_1b9a_412e_93ce_36971ab9a680_Class48 ( obj_3f3cbb64_2bc8_4561_a8ce_247ac8b84b02 o )  )  ( type_d6d3bbb3_1b9a_412e_93ce_36971ab9a680_Class45 ( obj_3f3cbb64_2bc8_4561_a8ce_247ac8b84b02 o )  ) ) ( type_d6d3bbb3_1b9a_412e_93ce_36971ab9a680_Class12 ( obj_3f3cbb64_2bc8_4561_a8ce_247ac8b84b02 o )  ) ) ( type_d6d3bbb3_1b9a_412e_93ce_36971ab9a680_Class55 ( obj_3f3cbb64_2bc8_4561_a8ce_247ac8b84b02 o )  ) ) ( type_d6d3bbb3_1b9a_412e_93ce_36971ab9a680_Class33 ( obj_3f3cbb64_2bc8_4561_a8ce_247ac8b84b02 o )  ) ) ( type_d6d3bbb3_1b9a_412e_93ce_36971ab9a680_Class22 ( obj_3f3cbb64_2bc8_4561_a8ce_247ac8b84b02 o )  ) ) ( type_d6d3bbb3_1b9a_412e_93ce_36971ab9a680_Class29 ( obj_3f3cbb64_2bc8_4561_a8ce_247ac8b84b02 o )  ) ) ( type_d6d3bbb3_1b9a_412e_93ce_36971ab9a680_Class39 ( obj_3f3cbb64_2bc8_4561_a8ce_247ac8b84b02 o )  ) ) ( type_d6d3bbb3_1b9a_412e_93ce_36971ab9a680_Class50 ( obj_3f3cbb64_2bc8_4561_a8ce_247ac8b84b02 o )  ) ) ( type_d6d3bbb3_1b9a_412e_93ce_36971ab9a680_Class41 ( obj_3f3cbb64_2bc8_4561_a8ce_247ac8b84b02 o )  ) )):named c43))
(assert (! (exists ((o Int)) (and (and (and (and (and (and (and (and (and ( type_d6d3bbb3_1b9a_412e_93ce_36971ab9a680_Class49 ( obj_3f3cbb64_2bc8_4561_a8ce_247ac8b84b02 o )  )  ( type_d6d3bbb3_1b9a_412e_93ce_36971ab9a680_Class45 ( obj_3f3cbb64_2bc8_4561_a8ce_247ac8b84b02 o )  ) ) ( type_d6d3bbb3_1b9a_412e_93ce_36971ab9a680_Class12 ( obj_3f3cbb64_2bc8_4561_a8ce_247ac8b84b02 o )  ) ) ( type_d6d3bbb3_1b9a_412e_93ce_36971ab9a680_Class55 ( obj_3f3cbb64_2bc8_4561_a8ce_247ac8b84b02 o )  ) ) ( type_d6d3bbb3_1b9a_412e_93ce_36971ab9a680_Class33 ( obj_3f3cbb64_2bc8_4561_a8ce_247ac8b84b02 o )  ) ) ( type_d6d3bbb3_1b9a_412e_93ce_36971ab9a680_Class22 ( obj_3f3cbb64_2bc8_4561_a8ce_247ac8b84b02 o )  ) ) ( type_d6d3bbb3_1b9a_412e_93ce_36971ab9a680_Class29 ( obj_3f3cbb64_2bc8_4561_a8ce_247ac8b84b02 o )  ) ) ( type_d6d3bbb3_1b9a_412e_93ce_36971ab9a680_Class39 ( obj_3f3cbb64_2bc8_4561_a8ce_247ac8b84b02 o )  ) ) ( type_d6d3bbb3_1b9a_412e_93ce_36971ab9a680_Class50 ( obj_3f3cbb64_2bc8_4561_a8ce_247ac8b84b02 o )  ) ) ( type_d6d3bbb3_1b9a_412e_93ce_36971ab9a680_Class41 ( obj_3f3cbb64_2bc8_4561_a8ce_247ac8b84b02 o )  ) )):named c44))
(assert (! (exists ((o Int)) (and ( type_d6d3bbb3_1b9a_412e_93ce_36971ab9a680_Class5 ( obj_3f3cbb64_2bc8_4561_a8ce_247ac8b84b02 o )  )  ( type_d6d3bbb3_1b9a_412e_93ce_36971ab9a680_Class39 ( obj_3f3cbb64_2bc8_4561_a8ce_247ac8b84b02 o )  ) )):named c45))
(assert (! (exists ((o Int)) (and (and (and (and (and (and (and (and ( type_d6d3bbb3_1b9a_412e_93ce_36971ab9a680_Class50 ( obj_3f3cbb64_2bc8_4561_a8ce_247ac8b84b02 o )  )  ( type_d6d3bbb3_1b9a_412e_93ce_36971ab9a680_Class45 ( obj_3f3cbb64_2bc8_4561_a8ce_247ac8b84b02 o )  ) ) ( type_d6d3bbb3_1b9a_412e_93ce_36971ab9a680_Class12 ( obj_3f3cbb64_2bc8_4561_a8ce_247ac8b84b02 o )  ) ) ( type_d6d3bbb3_1b9a_412e_93ce_36971ab9a680_Class55 ( obj_3f3cbb64_2bc8_4561_a8ce_247ac8b84b02 o )  ) ) ( type_d6d3bbb3_1b9a_412e_93ce_36971ab9a680_Class33 ( obj_3f3cbb64_2bc8_4561_a8ce_247ac8b84b02 o )  ) ) ( type_d6d3bbb3_1b9a_412e_93ce_36971ab9a680_Class22 ( obj_3f3cbb64_2bc8_4561_a8ce_247ac8b84b02 o )  ) ) ( type_d6d3bbb3_1b9a_412e_93ce_36971ab9a680_Class29 ( obj_3f3cbb64_2bc8_4561_a8ce_247ac8b84b02 o )  ) ) ( type_d6d3bbb3_1b9a_412e_93ce_36971ab9a680_Class39 ( obj_3f3cbb64_2bc8_4561_a8ce_247ac8b84b02 o )  ) ) ( type_d6d3bbb3_1b9a_412e_93ce_36971ab9a680_Class41 ( obj_3f3cbb64_2bc8_4561_a8ce_247ac8b84b02 o )  ) )):named c46))
(assert (! (exists ((o Int)) (and (and (and (and (and (and ( type_d6d3bbb3_1b9a_412e_93ce_36971ab9a680_Class51 ( obj_3f3cbb64_2bc8_4561_a8ce_247ac8b84b02 o )  )  ( type_d6d3bbb3_1b9a_412e_93ce_36971ab9a680_Class45 ( obj_3f3cbb64_2bc8_4561_a8ce_247ac8b84b02 o )  ) ) ( type_d6d3bbb3_1b9a_412e_93ce_36971ab9a680_Class12 ( obj_3f3cbb64_2bc8_4561_a8ce_247ac8b84b02 o )  ) ) ( type_d6d3bbb3_1b9a_412e_93ce_36971ab9a680_Class33 ( obj_3f3cbb64_2bc8_4561_a8ce_247ac8b84b02 o )  ) ) ( type_d6d3bbb3_1b9a_412e_93ce_36971ab9a680_Class22 ( obj_3f3cbb64_2bc8_4561_a8ce_247ac8b84b02 o )  ) ) ( type_d6d3bbb3_1b9a_412e_93ce_36971ab9a680_Class16 ( obj_3f3cbb64_2bc8_4561_a8ce_247ac8b84b02 o )  ) ) ( type_d6d3bbb3_1b9a_412e_93ce_36971ab9a680_Class39 ( obj_3f3cbb64_2bc8_4561_a8ce_247ac8b84b02 o )  ) )):named c47))
(assert (! (exists ((o Int)) (and (and (and (and (and ( type_d6d3bbb3_1b9a_412e_93ce_36971ab9a680_Class52 ( obj_3f3cbb64_2bc8_4561_a8ce_247ac8b84b02 o )  )  ( type_d6d3bbb3_1b9a_412e_93ce_36971ab9a680_Class45 ( obj_3f3cbb64_2bc8_4561_a8ce_247ac8b84b02 o )  ) ) ( type_d6d3bbb3_1b9a_412e_93ce_36971ab9a680_Class12 ( obj_3f3cbb64_2bc8_4561_a8ce_247ac8b84b02 o )  ) ) ( type_d6d3bbb3_1b9a_412e_93ce_36971ab9a680_Class33 ( obj_3f3cbb64_2bc8_4561_a8ce_247ac8b84b02 o )  ) ) ( type_d6d3bbb3_1b9a_412e_93ce_36971ab9a680_Class22 ( obj_3f3cbb64_2bc8_4561_a8ce_247ac8b84b02 o )  ) ) ( type_d6d3bbb3_1b9a_412e_93ce_36971ab9a680_Class39 ( obj_3f3cbb64_2bc8_4561_a8ce_247ac8b84b02 o )  ) )):named c48))
(assert (! (exists ((o Int)) ( type_d6d3bbb3_1b9a_412e_93ce_36971ab9a680_Class53 ( obj_3f3cbb64_2bc8_4561_a8ce_247ac8b84b02 o )  ) ):named c49))
(assert (! (exists ((o Int)) ( type_d6d3bbb3_1b9a_412e_93ce_36971ab9a680_Class54 ( obj_3f3cbb64_2bc8_4561_a8ce_247ac8b84b02 o )  ) ):named c50))
(assert (! (exists ((o Int)) (and (and (and (and (and (and (and ( type_d6d3bbb3_1b9a_412e_93ce_36971ab9a680_Class55 ( obj_3f3cbb64_2bc8_4561_a8ce_247ac8b84b02 o )  )  ( type_d6d3bbb3_1b9a_412e_93ce_36971ab9a680_Class45 ( obj_3f3cbb64_2bc8_4561_a8ce_247ac8b84b02 o )  ) ) ( type_d6d3bbb3_1b9a_412e_93ce_36971ab9a680_Class12 ( obj_3f3cbb64_2bc8_4561_a8ce_247ac8b84b02 o )  ) ) ( type_d6d3bbb3_1b9a_412e_93ce_36971ab9a680_Class33 ( obj_3f3cbb64_2bc8_4561_a8ce_247ac8b84b02 o )  ) ) ( type_d6d3bbb3_1b9a_412e_93ce_36971ab9a680_Class22 ( obj_3f3cbb64_2bc8_4561_a8ce_247ac8b84b02 o )  ) ) ( type_d6d3bbb3_1b9a_412e_93ce_36971ab9a680_Class29 ( obj_3f3cbb64_2bc8_4561_a8ce_247ac8b84b02 o )  ) ) ( type_d6d3bbb3_1b9a_412e_93ce_36971ab9a680_Class39 ( obj_3f3cbb64_2bc8_4561_a8ce_247ac8b84b02 o )  ) ) ( type_d6d3bbb3_1b9a_412e_93ce_36971ab9a680_Class41 ( obj_3f3cbb64_2bc8_4561_a8ce_247ac8b84b02 o )  ) )):named c51))
(assert (! (exists ((o Int)) ( type_d6d3bbb3_1b9a_412e_93ce_36971ab9a680_Class6 ( obj_3f3cbb64_2bc8_4561_a8ce_247ac8b84b02 o )  ) ):named c52))
(assert (! (exists ((o Int)) (and (and (and (and (and (and (and (and (and ( type_d6d3bbb3_1b9a_412e_93ce_36971ab9a680_Class7 ( obj_3f3cbb64_2bc8_4561_a8ce_247ac8b84b02 o )  )  ( type_d6d3bbb3_1b9a_412e_93ce_36971ab9a680_Class45 ( obj_3f3cbb64_2bc8_4561_a8ce_247ac8b84b02 o )  ) ) ( type_d6d3bbb3_1b9a_412e_93ce_36971ab9a680_Class12 ( obj_3f3cbb64_2bc8_4561_a8ce_247ac8b84b02 o )  ) ) ( type_d6d3bbb3_1b9a_412e_93ce_36971ab9a680_Class55 ( obj_3f3cbb64_2bc8_4561_a8ce_247ac8b84b02 o )  ) ) ( type_d6d3bbb3_1b9a_412e_93ce_36971ab9a680_Class33 ( obj_3f3cbb64_2bc8_4561_a8ce_247ac8b84b02 o )  ) ) ( type_d6d3bbb3_1b9a_412e_93ce_36971ab9a680_Class22 ( obj_3f3cbb64_2bc8_4561_a8ce_247ac8b84b02 o )  ) ) ( type_d6d3bbb3_1b9a_412e_93ce_36971ab9a680_Class29 ( obj_3f3cbb64_2bc8_4561_a8ce_247ac8b84b02 o )  ) ) ( type_d6d3bbb3_1b9a_412e_93ce_36971ab9a680_Class39 ( obj_3f3cbb64_2bc8_4561_a8ce_247ac8b84b02 o )  ) ) ( type_d6d3bbb3_1b9a_412e_93ce_36971ab9a680_Class50 ( obj_3f3cbb64_2bc8_4561_a8ce_247ac8b84b02 o )  ) ) ( type_d6d3bbb3_1b9a_412e_93ce_36971ab9a680_Class41 ( obj_3f3cbb64_2bc8_4561_a8ce_247ac8b84b02 o )  ) )):named c53))
(assert (! (exists ((o Int)) (and ( type_d6d3bbb3_1b9a_412e_93ce_36971ab9a680_Class8 ( obj_3f3cbb64_2bc8_4561_a8ce_247ac8b84b02 o )  )  ( type_d6d3bbb3_1b9a_412e_93ce_36971ab9a680_Class39 ( obj_3f3cbb64_2bc8_4561_a8ce_247ac8b84b02 o )  ) )):named c54))
(assert (! (exists ((o Int)) ( type_d6d3bbb3_1b9a_412e_93ce_36971ab9a680_Class9 ( obj_3f3cbb64_2bc8_4561_a8ce_247ac8b84b02 o )  ) ):named c55))

 ;end of formula 